opt/input.cpp.cnf_boolean__Z16CHECK_parity_1_3j
c boolean__Z16CHECK_parity_1_3j
p cnf 116 191
2 1 0
2 1 -33 0
3 35 0
3 35 -36 0
4 38 0
4 38 -39 0
5 41 0
5 41 -42 0
6 44 0
6 44 -45 0
7 47 0
7 47 -48 0
8 50 0
8 50 -51 0
9 53 0
9 53 -54 0
10 56 0
10 56 -57 0
11 59 0
11 59 -60 0
12 62 0
12 62 -63 0
13 65 0
13 65 -66 0
14 68 0
14 68 -69 0
15 71 0
15 71 -72 0
16 74 0
16 74 -75 0
17 77 0
17 77 -78 0
18 80 0
18 80 -81 0
19 83 0
19 83 -84 0
20 86 0
20 86 -87 0
21 89 0
21 89 -90 0
22 92 0
22 92 -93 0
23 95 0
23 95 -96 0
24 98 0
24 98 -99 0
25 101 0
25 101 -102 0
26 104 0
26 104 -105 0
27 107 0
27 107 -108 0
28 110 0
28 110 -111 0
29 113 0
29 113 -114 0
30 116 0
30 116 -117 0
31 119 0
31 119 -120 0
32 122 0
32 122 -123 0
4 3 0
4 3 -126 0
26 25 0
26 25 -129 0
28 27 0
28 27 -132 0
30 29 0
30 29 -135 0
32 31 0
32 31 -138 0
128 35 0
128 35 -141 0
134 131 0
134 131 -144 0
140 137 0
140 137 -147 0
143 149 0
143 149 -150 0
152 149 0
143 149 -153 0
154 149 0
143 149 -155 0
156 149 0
143 149 -157 0
158 149 0
143 149 -159 0
160 149 0
143 149 -161 0
162 149 0
143 149 -163 0
164 149 0
143 149 -165 0
166 149 0
143 149 -167 0
168 149 0
143 149 -169 0
170 149 0
143 149 -171 0
172 149 0
143 149 -173 0
174 149 0
143 149 -175 0
176 149 0
143 149 -177 0
178 149 0
143 149 -179 0
180 149 0
143 149 -181 0
182 146 0
182 146 -183 0
185 149 0
185 149 -186 0
125 188 0
125 188 -189 0
